c FILE: i080-144

c SOURCE: From steinlib

c DESCRIPTION: Steinlib instance with 80 nodes and 632 edges.

p edge 80 632
e 1 3
e 1 19
e 1 23
e 1 31
e 1 38
e 1 41
e 1 42
e 1 43
e 1 46
e 1 55
e 1 70
e 1 78
e 2 9
e 2 10
e 2 13
e 2 22
e 2 25
e 2 26
e 2 27
e 2 31
e 2 35
e 2 38
e 2 42
e 2 48
e 2 49
e 2 53
e 2 59
e 2 64
e 2 74
e 3 5
e 3 6
e 3 8
e 3 16
e 3 27
e 3 31
e 3 40
e 3 41
e 3 46
e 3 55
e 3 57
e 3 60
e 3 63
e 3 65
e 3 71
e 3 76
e 3 79
e 4 18
e 4 32
e 4 40
e 4 42
e 4 44
e 4 46
e 4 47
e 4 50
e 4 53
e 4 59
e 4 60
e 4 72
e 4 75
e 4 79
e 4 80
e 5 8
e 5 11
e 5 14
e 5 47
e 5 52
e 5 58
e 5 66
e 5 73
e 5 78
e 5 80
e 6 14
e 6 15
e 6 20
e 6 22
e 6 24
e 6 31
e 6 34
e 6 37
e 6 38
e 6 46
e 6 50
e 6 52
e 6 53
e 6 57
e 6 74
e 6 80
e 7 10
e 7 14
e 7 20
e 7 22
e 7 24
e 7 26
e 7 32
e 7 34
e 7 35
e 7 36
e 7 41
e 7 42
e 7 44
e 7 46
e 7 54
e 7 56
e 7 59
e 7 69
e 7 72
e 7 74
e 7 75
e 8 13
e 8 17
e 8 18
e 8 20
e 8 23
e 8 24
e 8 39
e 8 43
e 8 44
e 8 45
e 8 47
e 8 50
e 8 60
e 8 75
e 8 76
e 9 11
e 9 17
e 9 28
e 9 42
e 9 43
e 9 47
e 9 55
e 9 63
e 9 66
e 9 67
e 9 79
e 10 11
e 10 12
e 10 19
e 10 27
e 10 31
e 10 47
e 10 51
e 10 55
e 10 58
e 10 65
e 10 68
e 10 69
e 10 70
e 10 74
e 10 76
e 11 13
e 11 15
e 11 18
e 11 23
e 11 25
e 11 34
e 11 36
e 11 41
e 11 46
e 11 48
e 11 49
e 11 55
e 11 60
e 11 62
e 11 68
e 11 69
e 11 70
e 11 72
e 11 75
e 11 78
e 12 14
e 12 15
e 12 19
e 12 20
e 12 24
e 12 28
e 12 34
e 12 39
e 12 41
e 12 58
e 12 69
e 12 70
e 12 72
e 12 73
e 12 79
e 12 80
e 13 17
e 13 19
e 13 24
e 13 38
e 13 43
e 13 55
e 13 69
e 13 70
e 13 71
e 14 18
e 14 22
e 14 23
e 14 31
e 14 43
e 14 51
e 14 56
e 14 61
e 14 68
e 14 70
e 15 18
e 15 28
e 15 35
e 15 38
e 15 48
e 15 53
e 15 62
e 15 74
e 15 76
e 16 18
e 16 19
e 16 24
e 16 25
e 16 26
e 16 33
e 16 36
e 16 38
e 16 40
e 16 43
e 16 46
e 16 47
e 16 51
e 16 53
e 16 57
e 16 60
e 16 64
e 16 67
e 16 69
e 16 71
e 16 76
e 17 21
e 17 23
e 17 24
e 17 29
e 17 36
e 17 39
e 17 43
e 17 47
e 17 51
e 17 57
e 17 58
e 17 63
e 17 70
e 17 71
e 17 77
e 17 80
e 18 20
e 18 22
e 18 27
e 18 33
e 18 36
e 18 44
e 18 48
e 18 62
e 18 69
e 18 75
e 18 79
e 19 23
e 19 26
e 19 30
e 19 42
e 19 48
e 19 51
e 19 53
e 19 57
e 19 66
e 19 74
e 19 77
e 20 24
e 20 26
e 20 28
e 20 30
e 20 36
e 20 40
e 20 47
e 20 48
e 20 49
e 20 53
e 20 64
e 21 25
e 21 30
e 21 42
e 21 54
e 21 55
e 21 63
e 21 78
e 22 24
e 22 26
e 22 36
e 22 43
e 22 48
e 22 49
e 22 54
e 22 57
e 22 58
e 22 76
e 22 80
e 23 27
e 23 28
e 23 30
e 23 43
e 23 48
e 23 50
e 23 51
e 23 53
e 23 59
e 23 76
e 24 37
e 24 40
e 24 44
e 24 47
e 24 52
e 24 53
e 24 72
e 25 29
e 25 54
e 25 56
e 25 60
e 25 64
e 25 70
e 25 71
e 25 75
e 25 76
e 25 79
e 25 80
e 26 29
e 26 33
e 26 36
e 26 37
e 26 42
e 26 49
e 26 54
e 26 61
e 26 62
e 26 67
e 26 70
e 26 72
e 26 74
e 26 75
e 27 28
e 27 33
e 27 39
e 27 41
e 27 49
e 27 52
e 27 61
e 27 63
e 27 73
e 27 74
e 27 75
e 28 34
e 28 38
e 28 39
e 28 40
e 28 41
e 28 42
e 28 44
e 28 51
e 28 52
e 28 54
e 28 55
e 28 62
e 28 69
e 28 76
e 28 79
e 29 37
e 29 39
e 29 41
e 29 43
e 29 45
e 29 50
e 29 57
e 29 60
e 29 62
e 29 65
e 29 70
e 29 71
e 29 76
e 30 31
e 30 35
e 30 36
e 30 39
e 30 41
e 30 43
e 30 51
e 30 60
e 30 63
e 30 65
e 30 69
e 30 72
e 30 76
e 31 37
e 31 41
e 31 44
e 31 48
e 31 51
e 31 79
e 32 36
e 32 42
e 32 49
e 32 57
e 32 60
e 32 61
e 32 68
e 32 76
e 33 34
e 33 37
e 33 40
e 33 42
e 33 44
e 33 52
e 33 57
e 33 59
e 33 66
e 33 69
e 33 71
e 33 75
e 34 39
e 34 40
e 34 45
e 34 52
e 34 62
e 34 64
e 34 65
e 34 74
e 34 77
e 35 42
e 35 45
e 35 46
e 35 49
e 35 58
e 35 59
e 35 64
e 35 67
e 35 69
e 35 70
e 35 75
e 35 79
e 36 39
e 36 44
e 36 47
e 36 51
e 36 54
e 36 58
e 36 60
e 36 80
e 37 43
e 37 47
e 37 50
e 37 53
e 37 55
e 37 56
e 37 58
e 37 63
e 37 72
e 37 74
e 37 75
e 37 77
e 37 80
e 38 46
e 38 50
e 38 51
e 38 56
e 38 57
e 38 60
e 38 66
e 38 72
e 39 44
e 39 56
e 39 58
e 39 67
e 39 75
e 40 45
e 40 50
e 40 51
e 40 56
e 40 68
e 40 72
e 40 75
e 41 46
e 41 48
e 41 65
e 41 66
e 41 70
e 41 78
e 41 80
e 42 49
e 42 54
e 42 55
e 42 60
e 42 61
e 43 49
e 43 50
e 43 54
e 43 58
e 43 65
e 43 69
e 43 78
e 44 46
e 44 56
e 44 60
e 44 63
e 44 65
e 44 66
e 44 75
e 44 80
e 45 46
e 45 52
e 45 57
e 45 67
e 45 69
e 45 77
e 46 49
e 46 51
e 46 54
e 46 57
e 46 64
e 46 77
e 46 79
e 47 50
e 47 56
e 47 63
e 47 64
e 47 67
e 47 72
e 47 75
e 47 79
e 48 49
e 48 51
e 48 54
e 48 57
e 48 70
e 48 72
e 48 74
e 48 75
e 48 79
e 48 80
e 49 55
e 49 59
e 49 62
e 49 75
e 49 76
e 50 51
e 50 69
e 50 70
e 50 73
e 50 78
e 50 79
e 50 80
e 51 56
e 51 60
e 51 64
e 51 67
e 51 72
e 51 76
e 51 79
e 52 66
e 52 74
e 53 57
e 53 76
e 53 79
e 54 64
e 54 68
e 54 70
e 54 80
e 55 62
e 55 64
e 55 70
e 56 63
e 56 68
e 56 73
e 57 68
e 57 73
e 57 77
e 58 62
e 58 63
e 58 64
e 58 66
e 58 72
e 58 75
e 59 63
e 59 67
e 59 68
e 59 74
e 59 76
e 59 77
e 60 61
e 60 63
e 60 70
e 60 72
e 60 73
e 60 76
e 61 62
e 61 63
e 61 64
e 61 68
e 62 66
e 63 71
e 63 72
e 63 79
e 64 70
e 64 74
e 64 75
e 64 76
e 65 66
e 65 70
e 65 72
e 65 75
e 66 67
e 66 69
e 66 70
e 66 73
e 66 75
e 66 79
e 67 71
e 68 71
e 68 74
e 69 71
e 69 78
e 70 74
e 70 77
e 71 72
e 71 73
e 72 80
e 73 76
e 74 76
e 75 79
e 77 80
